Optimal - objective value 690.00095995
      0 C0000000               2                       0
      1 C0000001               2                       0
      2 C0000002               1                       0
      3 C0000003               1                       0
      4 C0000004               1                       0
      5 C0000005               1                       0
      6 C0000006               1                       0
      7 C0000007               1                       0
      8 C0000008               1                       0
      9 C0000009               1                       0
     10 C0000010               1                       0
     11 C0000011               1                       0
     12 C0000012               1                       0
     13 C0000013               1                       0
     14 C0000014               1                       0
     15 C0000015               1                       0
     16 C0000016               1                       0
     17 C0000017               1                       0
     18 C0000018               1                       0
     19 C0000019               1                       0
     20 C0000020               1                       0
     21 C0000021               1                       0
     22 C0000022               1                       0
     23 C0000023               1                       0
     24 C0000024               1                       0
     25 C0000025               1                       0
     26 C0000026               1                       0
     27 C0000027               1                       0
     28 C0000028               1                       0
     29 C0000029               1                       0
     30 C0000030               0                       0
     31 C0000031               0                       0
     32 C0000032               0                       0
     33 C0000033               0                       0
     34 C0000034               0                       0
     35 C0000035               0                       0
     36 C0000036               0                       0
     37 C0000037               0                       0
     38 C0000038               0                       0
     39 C0000039               0                       0
     40 C0000040               0                       0
     41 C0000041               0                       0
     42 C0000042               0                       0
     43 C0000043               0                       0
     44 C0000044               0                       0
     45 C0000045               0                       0
     46 C0000046               0                       0
     47 C0000047               0                       0
     48 C0000048               0                       0
     49 C0000049               0                       0
     50 C0000050               0                       0
     51 C0000051               0                       0
     52 C0000052               0                       0
     53 C0000053               0                       0
     54 C0000054               0                       0
     55 C0000055               0                       0
     56 C0000056               1                       0
     57 C0000057               1                       0
     58 C0000058               1                       0
     59 C0000059               1                       0
     60 C0000060            4538                       0
     61 C0000061            4540                       0
     62 C0000062              -1                       0
     63 C0000063              -1                       0
     64 C0000064               1                       0
     65 C0000065               1                       0
     66 C0000066              -2                       0
     67 C0000067              -2                       0
     68 C0000068              -1                       0
     69 C0000069             5.5                       0
     70 C0000070               0                       0
     71 C0000071               0                       0
     72 C0000072              -4                       0
     73 C0000073              -4                       0
     74 C0000074              -3                       0
     75 C0000075              -3                       0
     76 C0000076              -2                       0
     77 C0000077              -2                       0
     78 C0000078               1                       0
     79 C0000079               1                       0
     80 C0000080              -4                       0
     81 C0000081              -4                       0
     82 C0000082              -3                       0
     83 C0000083              -3                       0
     84 C0000084               1                       0
     85 C0000085               1                       0
     86 C0000086               2                       0
     87 C0000087               2                       0
     88 C0000088             5.5                       0
     89 C0000089              -1                       0
     90 C0000090               0                       0
     91 C0000091               0                       0
     92 C0000092               1                       0
     93 C0000093               1                       0
     94 C0000094              -3                       0
     95 C0000095              -3                       0
     96 C0000096              -2                       0
     97 C0000097              -2                       0
     98 C0000098              -1                       0
     99 C0000099              -1                       0
    100 C0000100               2                       0
    101 C0000101               2                       0
    102 C0000102              -3                       0
    103 C0000103              -3                       0
    104 C0000104              -2                       0
    105 C0000105              -2                       0
    106 C0000106              -1                       0
    107 C0000107             5.5                       0
    108 C0000108              -2                       0
    109 C0000109              -2                       0
    110 C0000110              -3                       0
    111 C0000111              -3                       0
    112 C0000112              -2                       0
    113 C0000113              -2                       0
    114 C0000114              -1                       0
    115 C0000115              -1                       0
    116 C0000116              -5                       0
    117 C0000117              -5                       0
    118 C0000118              -4                       0
    119 C0000119              -4                       0
    120 C0000120              -3                       0
    121 C0000121              -3                       0
    122 C0000122               0                       0
    123 C0000123               0                       0
    124 C0000124              -5                       0
    125 C0000125              -5                       0
    126 C0000126              -4                       0
    127 C0000127              -4                       0
    128 C0000128               2                       0
    129 C0000129               2                       0
    130 C0000130               1                       0
    131 C0000131               1                       0
    132 C0000132               3                       0
    133 C0000133               3                       0
    134 C0000134               1                       0
    135 C0000135               1                       0
    136 C0000136               2                       0
    137 C0000137               2                       0
    138 C0000138              -2                       0
    139 C0000139              -2                       0
    140 C0000140             5.5                       0
    141 C0000141              -1                       0
    142 C0000142               0                       0
    143 C0000143               0                       0
    144 C0000144               3                       0
    145 C0000145               3                       0
    146 C0000146              -2                       0
    147 C0000147              -2                       0
    148 C0000148              -1                       0
    149 C0000149              -1                       0
    150 C0000150               1                       0
    151 C0000151               1                       0
    152 C0000152               0                       0
    153 C0000153               0                       0
    154 C0000154               2                       0
    155 C0000155               2                       0
    156 C0000156              -1                       0
    157 C0000157              -1                       0
    158 C0000158               1                       0
    159 C0000159               1                       0
    160 C0000160              -3                       0
    161 C0000161              -3                       0
    162 C0000162              -2                       0
    163 C0000163              -2                       0
    164 C0000164              -1                       0
    165 C0000165             5.5                       0
    166 C0000166               2                       0
    167 C0000167               2                       0
    168 C0000168              -3                       0
    169 C0000169              -3                       0
    170 C0000170              -2                       0
    171 C0000171              -2                       0
    172 C0000172               0                       0
    173 C0000173               0                       0
    174 C0000174             5.5                       0
    175 C0000175              -1                       0
    176 C0000176               1                       0
    177 C0000177               1                       0
    178 C0000178              -2                       0
    179 C0000179              -2                       0
    180 C0000180              -1                       0
    181 C0000181              -1                       0
    182 C0000182              -4                       0
    183 C0000183              -4                       0
    184 C0000184              -3                       0
    185 C0000185              -3                       0
    186 C0000186              -2                       0
    187 C0000187              -2                       0
    188 C0000188               1                       0
    189 C0000189               1                       0
    190 C0000190              -4                       0
    191 C0000191              -4                       0
    192 C0000192              -3                       0
    193 C0000193              -3                       0
    194 C0000194               4                       0
    195 C0000195               4                       0
    196 C0000196               3                       0
    197 C0000197               3                       0
    198 C0000198               5                       0
    199 C0000199               5                       0
    200 C0000200               2                       0
    201 C0000201               2                       0
    202 C0000202               3                       0
    203 C0000203               3                       0
    204 C0000204               4                       0
    205 C0000205               4                       0
    206 C0000206               1                       0
    207 C0000207               1                       0
    208 C0000208               2                       0
    209 C0000209               2                       0
    210 C0000210               5                       0
    211 C0000211               5                       0
    212 C0000212               0                       0
    213 C0000213               0                       0
    214 C0000214               1                       0
    215 C0000215               1                       0
    216 C0000216               3                       0
    217 C0000217               3                       0
    218 C0000218               2                       0
    219 C0000219               2                       0
    220 C0000220               4                       0
    221 C0000221               4                       0
    222 C0000222               1                       0
    223 C0000223               1                       0
    224 C0000224               2                       0
    225 C0000225               2                       0
    226 C0000226               3                       0
    227 C0000227               3                       0
    228 C0000228             5.5                       0
    229 C0000229              -1                       0
    230 C0000230               1                       0
    231 C0000231               1                       0
    232 C0000232               4                       0
    233 C0000233               4                       0
    234 C0000234              -1                       0
    235 C0000235              -1                       0
    236 C0000236               0                       0
    237 C0000237               0                       0
    238 C0000238               2                       0
    239 C0000239               2                       0
    240 C0000240               1                       0
    241 C0000241               1                       0
    242 C0000242               3                       0
    243 C0000243               3                       0
    244 C0000244               0                       0
    245 C0000245               0                       0
    246 C0000246               1                       0
    247 C0000247               1                       0
    248 C0000248               2                       0
    249 C0000249               2                       0
    250 C0000250              -2                       0
    251 C0000251              -2                       0
    252 C0000252              -1                       0
    253 C0000253              -1                       0
    254 C0000254               3                       0
    255 C0000255               3                       0
    256 C0000256              -2                       0
    257 C0000257              -2                       0
    258 C0000258              -1                       0
    259 C0000259             5.5                       0
    260 C0000260              -1                       0
    261 C0000261              -1                       0
    262 C0000262              -2                       0
    263 C0000263              -2                       0
    264 C0000264               0                       0
    265 C0000265               0                       0
    266 C0000266              -3                       0
    267 C0000267              -3                       0
    268 C0000268              -2                       0
    269 C0000269              -2                       0
    270 C0000270             5.5                       0
    271 C0000271              -1                       0
    272 C0000272              -5                       0
    273 C0000273              -5                       0
    274 C0000274              -4                       0
    275 C0000275              -4                       0
    276 C0000276              -3                       0
    277 C0000277              -3                       0
    278 C0000278              -5                       0
    279 C0000279              -5                       0
    280 C0000280              -4                       0
    281 C0000281              -4                       0
    282 C0000282               4                       0
    283 C0000283               4                       0
    284 C0000284               3                       0
    285 C0000285               3                       0
    286 C0000286               5                       0
    287 C0000287               5                       0
    288 C0000288               2                       0
    289 C0000289               2                       0
    290 C0000290               3                       0
    291 C0000291               3                       0
    292 C0000292               4                       0
    293 C0000293               4                       0
    294 C0000294               0                       0
    295 C0000295               0                       0
    296 C0000296               1                       0
    297 C0000297               1                       0
    298 C0000298               2                       0
    299 C0000299               2                       0
    300 C0000300               5                       0
    301 C0000301               5                       0
    302 C0000302               1                       0
    303 C0000303               1                       0
    304 C0000304               3                       0
    305 C0000305               3                       0
    306 C0000306               2                       0
    307 C0000307               2                       0
    308 C0000308               4                       0
    309 C0000309               4                       0
    310 C0000310               1                       0
    311 C0000311               1                       0
    312 C0000312               2                       0
    313 C0000313               2                       0
    314 C0000314               3                       0
    315 C0000315               3                       0
    316 C0000316              -1                       0
    317 C0000317              -1                       0
    318 C0000318               0                       0
    319 C0000319               0                       0
    320 C0000320               1                       0
    321 C0000321               1                       0
    322 C0000322               4                       0
    323 C0000323               4                       0
    324 C0000324              -1                       0
    325 C0000325             5.5                       0
      0 X0000000               1                       0
      1 X0000001               0                       0
      2 X0000002               5                       0
      3 X0000003               4                       0
      4 X0000004               2                       0
      5 X0000005               0                       0
      6 X0000006               3                       0
      7 X0000007               2                       0
      8 X0000008               1                       0
      9 X0000009               5                       0
     10 X0000010               4                       0
     11 X0000011               3                       0
     12 X0000012               0               108.22199
     13 X0000013               0               108.22199
     14 X0000014               1               61.771329
     15 X0000015               0               61.771329
     16 X0000016               0               109.86701
     17 X0000017               0               109.86701
     18 X0000018               0               200.45623
     19 X0000019               0               200.45623
     20 X0000020               0               128.33323
     21 X0000021               0               128.33323
     22 X0000022               0               55.581485
     23 X0000023               1               55.581485
     24 X0000024               0               170.97197
     25 X0000025               0               170.97197
     26 X0000026               0               204.29126
     27 X0000027               0               204.29126
     28 X0000028               0               103.70811
     29 X0000029               0               103.70811
     30 X0000030               0               137.85958
     31 X0000031               0               137.85958
     32 X0000032               0               205.87913
     33 X0000033               0               205.87913
     34 X0000034               0               206.47451
     35 X0000035               0               206.47451
     36 X0000036               0               39.836555
     37 X0000037               0               39.836555
     38 X0000038               0               59.869646
     39 X0000039               0               59.869646
     40 X0000040               0               71.585393
     41 X0000041               0               71.585393
     42 X0000042               0               132.99693
     43 X0000043               0               132.99693
     44 X0000044               0                58.90571
     45 X0000045               0                58.90571
     46 X0000046               0               19.809946
     47 X0000047               0               19.809946
     48 X0000048               0               89.829823
     49 X0000049               0               89.829823
     50 X0000050               0               133.30598
     51 X0000051               0               133.30598
     52 X0000052               1               36.919948
     53 X0000053               0               36.919948
     54 X0000054               0               69.046545
     55 X0000055               0               69.046545
     56 X0000056               0               118.86514
     57 X0000057               0               118.86514
     58 X0000058               0               136.89864
     59 X0000059               0               136.89864
     60 X0000060               0               80.905029
     61 X0000061               1               80.905029
     62 X0000062               0               21.377136
     63 X0000063               0               21.377136
     64 X0000064               0               71.585393
     65 X0000065               0               71.585393
     66 X0000066               0               72.407585
     67 X0000067               0               72.407585
     68 X0000068               0               63.513994
     69 X0000069               0               63.513994
     70 X0000070               0               53.809143
     71 X0000071               0               53.809143
     72 X0000072               0               93.299231
     73 X0000073               0               93.299231
     74 X0000074               0               77.222385
     75 X0000075               0               77.222385
     76 X0000076               0               64.869146
     77 X0000077               0               64.869146
     78 X0000078               0               59.430303
     79 X0000079               0               59.430303
     80 X0000080               0               108.21329
     81 X0000081               0               108.21329
     82 X0000082               0               77.440923
     83 X0000083               0               77.440923
     84 X0000084               0               156.39941
     85 X0000085               0               156.39941
     86 X0000086               0               73.928593
     87 X0000087               0               73.928593
     88 X0000088               0               132.99693
     89 X0000089               0               132.99693
     90 X0000090               0               72.407585
     91 X0000091               1               72.407585
     92 X0000092               0               90.882966
     93 X0000093               0               90.882966
     94 X0000094               0               119.84104
     95 X0000095               0               119.84104
     96 X0000096               0               97.111957
     97 X0000097               0               97.111957
     98 X0000098               0               11.180002
     99 X0000099               0               11.180002
    100 X0000100               0               108.29617
    101 X0000101               0               108.29617
    102 X0000102               0               78.313328
    103 X0000103               0               78.313328
    104 X0000104               0               89.223452
    105 X0000105               0               89.223452
    106 X0000106               0               5.4080958
    107 X0000107               0               5.4080958
    108 X0000108               0               79.520938
    109 X0000109               0               79.520938
    110 X0000110               0               59.869646
    111 X0000111               0               59.869646
    112 X0000112               0               21.377136
    113 X0000113               0               21.377136
    114 X0000114               0               73.928593
    115 X0000115               0               73.928593
    116 X0000116               0               42.156616
    117 X0000117               0               42.156616
    118 X0000118               0               45.946853
    119 X0000119               0               45.946853
    120 X0000120               0               72.884255
    121 X0000121               0               72.884255
    122 X0000122               0                75.69246
    123 X0000123               1                75.69246
    124 X0000124               0               45.087746
    125 X0000125               0               45.087746
    126 X0000126               0               38.969202
    127 X0000127               0               38.969202
    128 X0000128               0               90.486722
    129 X0000129               0               90.486722
    130 X0000130               0               78.206543
    131 X0000131               0               78.206543
    132 X0000132               0               96.391964
    133 X0000133               0               96.391964
    134 X0000134               0               42.156616
    135 X0000135               0               42.156616
    136 X0000136               0                58.90571
    137 X0000137               0                58.90571
    138 X0000138               0               63.513994
    139 X0000139               0               63.513994
    140 X0000140               0               90.882966
    141 X0000141               0               90.882966
    142 X0000142               0               58.695914
    143 X0000143               0               58.695914
    144 X0000144               1               34.632406
    145 X0000145               0               34.632406
    146 X0000146               0                87.23447
    147 X0000147               0                87.23447
    148 X0000148               0               22.749576
    149 X0000149               0               22.749576
    150 X0000150               0               12.997734
    151 X0000151               0               12.997734
    152 X0000152               0               60.687784
    153 X0000153               0               60.687784
    154 X0000154               0               93.195361
    155 X0000155               0               93.195361
    156 X0000156               0               34.388047
    157 X0000157               0               34.388047
    158 X0000158               0               45.946853
    159 X0000159               1               45.946853
    160 X0000160               0               19.809946
    161 X0000161               0               19.809946
    162 X0000162               0               53.809143
    163 X0000163               0               53.809143
    164 X0000164               0               119.84104
    165 X0000165               0               119.84104
    166 X0000166               0               58.695914
    167 X0000167               0               58.695914
    168 X0000168               0                92.66397
    169 X0000169               0                92.66397
    170 X0000170               0               121.50083
    171 X0000171               0               121.50083
    172 X0000172               0               40.941275
    173 X0000173               0               40.941275
    174 X0000174               0               65.821554
    175 X0000175               0               65.821554
    176 X0000176               0               119.17734
    177 X0000177               0               119.17734
    178 X0000178               0               124.15291
    179 X0000179               0               124.15291
    180 X0000180               0                131.9273
    181 X0000181               0                131.9273
    182 X0000182               0               72.884255
    183 X0000183               0               72.884255
    184 X0000184               0               89.829823
    185 X0000185               0               89.829823
    186 X0000186               0               93.299231
    187 X0000187               0               93.299231
    188 X0000188               0               97.111957
    189 X0000189               0               97.111957
    190 X0000190               0               34.632406
    191 X0000191               0               34.632406
    192 X0000192               0                92.66397
    193 X0000193               0                92.66397
    194 X0000194               0               89.812763
    195 X0000195               0               89.812763
    196 X0000196               0               53.159195
    197 X0000197               0               53.159195
    198 X0000198               0               33.937084
    199 X0000199               0               33.937084
    200 X0000200               1               30.911165
    201 X0000201               0               30.911165
    202 X0000202               0               97.534276
    203 X0000203               0               97.534276
    204 X0000204               0               159.57875
    205 X0000205               0               159.57875
    206 X0000206               0                75.69246
    207 X0000207               0                75.69246
    208 X0000208               0               133.30598
    209 X0000209               0               133.30598
    210 X0000210               0               77.222385
    211 X0000211               0               77.222385
    212 X0000212               0               11.180002
    213 X0000213               0               11.180002
    214 X0000214               0                87.23447
    215 X0000215               0                87.23447
    216 X0000216               0               121.50083
    217 X0000217               0               121.50083
    218 X0000218               0               89.812763
    219 X0000219               0               89.812763
    220 X0000220               0               106.15662
    221 X0000221               0               106.15662
    222 X0000222               0               74.345998
    223 X0000223               0               74.345998
    224 X0000224               0               79.547821
    225 X0000225               0               79.547821
    226 X0000226               0                8.398659
    227 X0000227               1                8.398659
    228 X0000228               0                 75.7184
    229 X0000229               0                 75.7184
    230 X0000230               0               45.087746
    231 X0000231               0               45.087746
    232 X0000232               0               36.919948
    233 X0000233               0               36.919948
    234 X0000234               0               64.869146
    235 X0000235               0               64.869146
    236 X0000236               0               108.29617
    237 X0000237               0               108.29617
    238 X0000238               1               22.749576
    239 X0000239               0               22.749576
    240 X0000240               0               40.941275
    241 X0000241               0               40.941275
    242 X0000242               0               53.159195
    243 X0000243               0               53.159195
    244 X0000244               0               106.15662
    245 X0000245               0               106.15662
    246 X0000246               0               34.560427
    247 X0000247               0               34.560427
    248 X0000248               0               81.949957
    249 X0000249               0               81.949957
    250 X0000250               0               111.27567
    251 X0000251               0               111.27567
    252 X0000252               1               104.35292
    253 X0000253               0               104.35292
    254 X0000254               0               38.969202
    255 X0000255               0               38.969202
    256 X0000256               0               69.046545
    257 X0000257               0               69.046545
    258 X0000258               0               59.430303
    259 X0000259               0               59.430303
    260 X0000260               0               78.313328
    261 X0000261               0               78.313328
    262 X0000262               0               12.997734
    263 X0000263               0               12.997734
    264 X0000264               0               65.821554
    265 X0000265               0               65.821554
    266 X0000266               0               33.937084
    267 X0000267               0               33.937084
    268 X0000268               0               74.345998
    269 X0000269               0               74.345998
    270 X0000270               0               34.560427
    271 X0000271               0               34.560427
    272 X0000272               0               54.323445
    273 X0000273               0               54.323445
    274 X0000274               0               80.455947
    275 X0000275               0               80.455947
    276 X0000276               0               160.89492
    277 X0000277               0               160.89492
    278 X0000278               0               90.486722
    279 X0000279               0               90.486722
    280 X0000280               0               118.86514
    281 X0000281               0               118.86514
    282 X0000282               0               108.21329
    283 X0000283               0               108.21329
    284 X0000284               0               89.223452
    285 X0000285               0               89.223452
    286 X0000286               0               60.687784
    287 X0000287               0               60.687784
    288 X0000288               0               119.17734
    289 X0000289               0               119.17734
    290 X0000290               0               30.911165
    291 X0000291               0               30.911165
    292 X0000292               0               79.547821
    293 X0000293               0               79.547821
    294 X0000294               0               81.949957
    295 X0000295               0               81.949957
    296 X0000296               1               54.323445
    297 X0000297               0               54.323445
    298 X0000298               0               87.924757
    299 X0000299               0               87.924757
    300 X0000300               0                161.3884
    301 X0000301               0                161.3884
    302 X0000302               0               78.206543
    303 X0000303               0               78.206543
    304 X0000304               0               136.89864
    305 X0000305               0               136.89864
    306 X0000306               0               77.440923
    307 X0000307               0               77.440923
    308 X0000308               0               5.4080958
    309 X0000309               1               5.4080958
    310 X0000310               0               93.195361
    311 X0000311               0               93.195361
    312 X0000312               0               124.15291
    313 X0000313               0               124.15291
    314 X0000314               0               97.534276
    315 X0000315               0               97.534276
    316 X0000316               0                8.398659
    317 X0000317               0                8.398659
    318 X0000318               0               111.27567
    319 X0000319               0               111.27567
    320 X0000320               0               80.455947
    321 X0000321               0               80.455947
    322 X0000322               0               87.924757
    323 X0000323               0               87.924757
